# Solution for model count
# Objective value = 10
z#1 0
z#2 0
z#3 0
z#4 1
z#5 1
z#6 1
z#7 0
z#8 0
z#9 1
z#10 0
z#11 1
z#12 1
z#13 1
z#14 0
z#15 0
z#16 0
z#17 0
z#18 0
z#19 1
z#20 1
z#21 0
z#22 1
z#23 0
z#24 0
x#24 0
x#23 0
x#22 356
x#21 0
x#20 2571
x#19 385
x#18 0
x#17 0
x#16 0
x#15 0
x#14 0
x#13 424
x#12 1327
x#11 473
x#10 0
x#9 2299
x#8 0
x#7 0
x#6 128
x#5 781
x#4 1256
x#3 0
x#2 0
x#1 0
